s td 195 48 758
b 1 6 120 133 138 217 325 343 361 385 458 538 738
b 2 21 109 114 117 146 220 252 272 290 296 323 326 346 380 393 459 564 586 588 599 638 646 661 747
b 3 55 375 418 467 723 734
b 4 44 57 68 93 96 137 149 151 153 198 285 378 413 469 472 535 546 552 619 623 644 659 676 705
b 5 12 32 61 173 210 250 274 363 382 403 540 742
b 6 5 50 64 74 77 83 107 148 180 189 190 212 231 331 477 480 512 517 530 579 601 618 704 707 749
b 7 37 134 219 221 241 445 486 501 534 683 715 735
b 8 17 81 155 161 195 223 234 261 295 312 365 397 411 425 450 464 499 641 643 701
b 9 45 142 158 196 235 293 348 376 383 398 439 444 451 462 555 607 631 657 682 741
b 10 84 92 102 170 178 192 243 255 268 291 301 379 409 435 466 519 543 544 593 629
b 11 16 20 37 60 208 281 298 307 419 501 527 539 683 695 720
b 12 76 157 166 183 201 258 314 374 392 475 487 554 649 713 729
b 13 76 157 166 183 201 224 258 314 374 475 487 554 649 713 729
b 14 16 20 37 60 208 281 307 387 419 501 527 539 683 695 720
b 15 76 157 314 415 440 476 566 592 627 670 675 692
b 16 5 35 46 50 56 58 212 213 214 245 251 317 322 333 353 420 454 471 485 493 503 578 606 642 716 753
b 17 37 221 241 281 486 501 534 683 715 735
b 18 39 78 129 194 206 227 256 336 356 483 491 497 505 514 533 570 571 591 594 624 650 656 696 702 711 745
b 19 85 202 408 600 652 693
b 20 2 30 48 51 115 122 238 239 280 294 341 354 388 473 565 602 639 666 691 722
b 21 25 28 63 101 111 124 263 270 362 414 430 463 510 514 533 609 621 636 650 687 703 706 728 733 737
b 22 76 157 314 374 415 440 566 627 670 692
b 23 36 80 113 162 316 433 603
b 24 36 80 133 162 292 316 343 603 681 708
b 25 36 133 162 292 343 538 603 681 708
b 26 85 202 337 408 652 668
b 27 33 85 127 225 278 337 349 408 652 668
b 28 23 156 441 448 456 510 679
b 29 23 156 176 250 441 448 510 686 736 742
b 30 23 156 176 250 403 448 510 686 736 742
b 31 3 253 418 467 723 734
b 32 3 232 253 345 418 467 522 528 614 734
b 33 5 15 31 50 70 89 98 154 209 212 223 244 251 262 265 269 279 322 328 333 344 353 367 407 442 446 450 468 477 485 496 503 510 524 536 541 559 582 635 640 710 739 744 752 754
b 34 31 89 98 154 156 176 209 223 244 250 262 269 279 328 344 367 403 442 446 450 468 485 510 536 541 559 582 635 640 686 710 736 742 754
b 35 31 37 68 89 96 98 154 156 176 198 209 221 223 241 244 250 262 269 279 281 328 344 367 403 413 442 446 450 468 485 486 501 536 541 546 559 582 619 635 640 672 683 686 710 715 736 742 754
b 36 31 37 38 68 96 98 154 156 176 198 209 221 236 241 244 250 262 269 279 281 308 328 344 347 367 403 413 446 450 468 485 486 501 536 546 559 582 619 640 672 683 686 710 715 736 742
b 37 37 38 68 96 98 177 198 221 236 241 260 279 281 308 315 328 347 367 413 446 486 501 546 663 672 683 710 715
b 38 37 68 96 97 98 177 198 221 241 260 279 281 315 328 367 413 446 486 501 546 663 672 683 710 715
b 39 37 97 177 221 241 260 281 299 315 328 367 413 416 486 501 663 683 715
b 40 7 37 177 186 221 241 260 281 299 315 367 416 486 501 663 683 715
b 41 7 37 177 186 221 241 242 260 281 315 416 486 501 523 663 683 715
b 42 7 37 67 177 186 221 241 242 281 315 416 437 486 501 523 663 683 715 746
b 43 7 24 37 67 186 242 281 366 400 416 437 501 523 683 746
b 44 7 24 67 150 186 242 281 366 400 416 437 501 523 683 746
b 45 24 37 67 242 366 400 460 523 550 746
b 46 31 37 38 44 68 96 151 154 156 176 198 209 221 236 241 244 250 262 269 281 285 308 344 347 403 413 450 468 485 486 501 536 546 552 559 582 619 640 644 683 686 705 715 736 742
b 47 12 31 32 37 38 44 49 119 151 154 156 176 209 221 236 241 244 250 262 269 281 285 308 344 347 403 450 468 478 485 486 501 509 536 540 552 559 582 640 644 683 686 705 715 736 742
b 48 12 31 32 37 38 44 49 112 119 151 154 156 176 209 221 236 241 244 250 269 281 285 308 344 347 403 450 468 478 485 486 501 509 536 540 552 559 582 640 644 683 686 705 715 736 742
b 49 12 19 31 32 37 38 44 49 112 119 154 156 176 209 221 236 241 250 269 281 308 347 364 403 450 478 485 486 501 509 536 540 640 683 686 715 736 742
b 50 12 19 31 32 37 38 44 49 112 119 154 156 176 209 221 236 241 250 269 281 308 339 347 364 403 450 457 478 486 501 509 536 540 640 683 686 715 736 742
b 51 12 19 31 32 37 38 44 49 112 119 154 209 221 236 241 269 281 300 308 339 347 364 450 457 478 481 486 501 509 536 540 640 683 715
b 52 12 19 31 32 37 38 44 49 112 116 119 154 209 221 241 269 281 300 308 339 347 364 450 457 478 481 486 501 509 536 540 620 640 683 715
b 53 12 16 19 31 32 37 44 49 60 112 116 119 154 209 221 241 269 281 300 339 364 387 450 457 478 481 486 501 509 536 540 620 640 683 695 715
b 54 16 19 37 60 105 116 221 241 281 300 335 339 364 387 457 481 486 501 511 525 620 683 695 715
b 55 19 42 90 105 116 221 241 300 335 339 364 417 457 481 486 502 511 525 620 715
b 56 12 19 32 49 119 156 176 250 339 364 403 457 478 509 540 575 667 686 714 736 742
b 57 12 19 32 49 156 175 176 250 339 364 403 457 478 509 540 575 667 686 714 736 742
b 58 38 112 151 236 244 285 308 344 347 468 552 559 582 644 690 705
b 59 5 15 31 50 53 70 89 98 154 209 212 223 244 251 262 265 269 279 322 328 333 344 353 367 407 442 446 450 468 477 496 503 513 524 536 541 559 569 582 598 635 640 710 732 739 744 752 754
b 60 5 15 31 50 53 70 89 98 209 212 223 244 251 262 265 279 322 328 333 342 344 353 367 407 442 446 468 477 496 503 513 524 536 541 559 569 580 582 598 635 640 710 732 739 744 752 754
b 61 5 15 31 50 53 70 89 98 209 212 223 244 251 265 276 279 313 322 328 333 342 353 367 407 442 446 468 477 496 503 513 524 536 541 553 559 569 580 598 635 640 710 732 739 744 752 754
b 62 5 15 50 53 70 89 98 209 212 223 251 265 276 279 313 321 322 328 333 342 353 367 407 442 446 474 477 496 503 513 524 536 541 553 580 598 635 710 731 732 739 744 752 754 756
b 63 5 15 50 53 62 70 89 140 212 223 251 265 273 276 313 321 322 328 333 342 353 367 407 442 446 465 474 477 496 503 513 524 536 553 580 598 731 732 739 744 752 754 756
b 64 5 15 29 50 53 62 70 89 94 118 135 140 212 251 265 273 276 297 313 321 322 333 342 353 407 465 474 477 496 503 513 524 536 553 580 598 660 664 725 732 739 744 752 756 758
b 65 29 53 62 72 89 94 118 135 140 251 273 276 297 313 321 342 407 465 474 513 518 536 553 580 597 598 658 660 664 725 732 756 758
b 66 29 53 62 72 89 94 103 118 140 141 160 181 197 232 273 276 288 297 313 321 465 474 507 513 518 536 553 557 572 597 598 615 658 660 664 688 717 718 725 732 756 758
b 67 27 53 62 69 73 87 89 103 140 141 160 181 197 232 273 276 288 313 321 350 465 474 507 513 536 553 557 572 598 615 688 717 718 732 756
b 68 27 53 62 69 73 87 103 140 141 160 181 197 232 273 276 288 313 350 418 465 467 507 513 528 536 553 557 572 598 614 615 688 717 718 732
b 69 27 53 69 73 87 103 128 139 141 160 181 197 232 276 288 313 350 418 467 507 513 528 536 553 557 572 598 614 615 688 717 718 732
b 70 8 27 53 69 73 87 103 128 139 141 160 167 181 197 232 276 288 313 350 418 467 507 528 536 553 557 572 596 598 614 615 688 717 718 732
b 71 8 27 69 73 87 103 128 139 141 160 163 167 181 185 197 232 288 350 368 384 396 418 449 467 507 528 557 572 584 596 605 614 615 688 700 717 718
b 72 8 27 69 73 87 128 139 163 167 181 185 205 232 350 368 384 396 418 449 467 520 528 584 596 605 614 700
b 73 181 205 232 345 418 467 520 522 528 614
b 74 8 27 69 73 87 128 139 163 167 185 205 350 368 381 384 396 427 449 520 584 596 605 700
b 75 29 72 89 94 103 118 141 160 181 197 232 276 288 297 313 321 369 447 474 484 507 518 536 553 557 572 597 615 658 660 664 688 717 718 725 756 758
b 76 29 72 89 94 103 118 141 160 181 197 232 276 288 297 313 321 369 447 474 484 507 518 547 553 557 572 597 615 658 660 664 688 717 718 725 756 758
b 77 14 22 29 71 72 94 103 118 126 141 160 181 197 232 275 288 297 369 386 391 447 484 507 518 547 557 572 585 597 615 658 660 664 688 717 718 725 758
b 78 5 50 77 89 98 158 180 190 212 235 244 251 262 279 322 328 333 342 344 348 353 367 407 446 451 468 477 503 512 536 559 580 582 601 657 682 710
b 79 45 77 89 98 158 190 235 244 262 279 328 344 348 367 439 446 451 468 536 559 582 657 682 710
b 80 45 77 89 98 158 190 235 244 262 279 328 348 367 439 446 451 468 536 559 582 607 616 657 682 710
b 81 45 77 89 98 158 190 235 244 279 328 348 367 383 439 446 451 462 607 616 657 682 710
b 82 45 77 89 98 142 158 190 235 244 279 328 348 367 370 383 439 451 462 607 616 657 682 710
b 83 45 77 98 142 158 190 235 244 348 370 383 439 451 462 555 607 616 657 682 741
b 84 45 77 142 158 190 235 244 348 376 383 439 444 451 462 555 607 616 657 682 741
b 85 5 50 77 89 98 158 180 190 212 235 244 251 262 279 322 328 333 342 344 348 353 367 407 446 451 468 477 480 503 512 559 580 582 601 657 682 710
b 86 5 50 77 148 158 180 190 212 235 251 262 322 328 333 342 344 348 353 367 407 446 451 477 480 503 512 568 579 580 582 587 601 613 634 657 682 709
b 87 54 145 148 262 328 344 348 367 446 451 568 579 582 587 613 634 709
b 88 5 50 77 83 107 148 158 180 190 212 231 235 251 322 333 342 353 407 477 480 503 512 517 530 568 579 580 587 601 613 618 634 657 682 707 709 749
b 89 5 50 74 77 83 107 148 158 180 189 190 212 231 235 331 477 480 512 517 530 568 579 601 613 618 634 657 682 704 707 709 749
b 90 5 15 31 50 70 154 209 212 222 223 251 265 269 309 322 332 333 334 353 407 428 442 450 477 485 496 503 510 524 541 635 640 684 739 744 752 754
b 91 31 154 195 209 222 223 269 309 332 334 428 442 450 510 541 635 640 684 754
b 92 31 154 195 209 222 223 269 309 332 334 428 442 450 464 541 625 635 640 684 754
b 93 17 31 154 195 207 209 222 223 269 309 332 334 428 450 464 541 625 640 641 684
b 94 17 81 161 195 207 222 223 309 312 332 334 411 428 450 464 541 625 640 641 684
b 95 17 81 161 195 207 223 295 309 312 334 397 411 450 464 541 625 640 641
b 96 17 81 161 195 207 223 261 295 309 312 334 397 411 450 464 499 640 641
b 97 17 81 161 195 207 223 234 261 295 312 397 411 425 450 464 499 640 641
b 98 5 15 31 50 70 191 209 212 222 251 265 267 309 322 332 333 334 353 407 428 477 485 496 503 524 541 635 640 654 684 697 739 744 752
b 99 5 15 50 70 191 212 222 251 265 267 289 303 305 309 322 332 333 334 353 407 428 477 485 496 503 524 651 654 684 697 726 739 744 752
b 100 5 15 50 70 212 251 265 283 289 303 305 309 322 333 334 353 360 407 477 485 496 503 524 651 726 739 744 752
b 101 5 15 50 70 121 212 251 265 283 289 303 305 322 333 353 360 407 477 485 496 503 524 606 651 726 739 744 752
b 102 5 50 121 212 245 251 283 289 305 317 322 333 353 360 407 454 485 503 606 651 726 753
b 103 5 50 58 121 212 213 245 251 283 317 322 333 353 360 407 454 471 485 503 606 753
b 104 15 70 75 121 265 282 283 289 303 305 360 477 496 524 606 651 726 739 744 752 755
b 105 15 70 75 79 121 265 282 283 289 303 305 360 477 524 606 651 678 726 739 744 755
b 106 15 70 75 79 121 184 282 283 289 303 305 360 477 606 651 678 719 726 739 744 755
b 107 1 9 26 36 66 76 117 133 157 174 193 195 220 249 292 311 314 323 327 343 371 373 374 393 440 466 488 489 490 494 531 538 560 563 566 567 594 638 669 670 677 681 692 708 743 747
b 108 26 36 66 76 86 117 133 157 174 193 195 220 249 292 311 314 323 327 343 355 371 373 374 393 410 424 440 466 489 490 494 531 538 560 563 566 567 594 629 638 669 670 681 692 708 743 747 748
b 109 26 43 66 86 91 132 169 174 195 211 249 287 304 311 319 327 355 371 373 389 405 410 412 424 466 470 482 489 490 494 500 531 549 560 563 567 594 626 629 648 655 669 743 748
b 110 26 43 91 132 164 169 174 195 211 249 287 304 311 319 320 327 355 371 373 389 405 410 412 424 429 470 482 489 494 500 515 531 549 560 563 567 594 626 648 655 662 669 743
b 111 43 132 164 169 195 249 271 287 304 311 319 320 327 336 355 371 373 389 405 429 470 482 489 500 515 531 549 560 563 567 573 594 626 628 648 662 669 673 743
b 112 39 132 164 169 195 249 271 287 311 320 327 336 355 356 371 373 389 405 414 429 470 482 489 497 500 514 515 531 533 560 563 567 573 594 624 626 628 648 650 662 669 673 743
b 113 30 39 101 115 122 195 249 263 271 311 327 336 355 356 362 371 373 414 473 489 497 510 514 531 533 560 563 567 573 621 624 628 639 650 666 669 743
b 114 30 101 115 122 195 238 249 311 327 354 355 371 373 473 489 510 531 560 563 567 639 666 669 743
b 115 30 101 115 122 195 238 239 249 311 327 354 355 371 373 394 473 489 510 531 563 567 639 666 669 743
b 116 30 101 115 122 195 238 239 249 327 354 355 371 373 388 394 473 510 567 639 666 722 743
b 117 30 101 115 122 136 195 238 239 249 327 354 355 371 373 388 394 473 510 565 567 639 666 722
b 118 30 101 115 122 136 238 239 280 354 373 388 394 473 510 565 567 639 666 691 722
b 119 2 30 48 101 115 122 136 238 239 280 354 388 473 510 565 567 639 666 691 722
b 120 30 39 101 115 122 195 249 263 271 327 336 355 356 362 371 373 414 473 489 497 510 514 531 533 560 563 567 573 621 624 628 639 650 666 669 703 743
b 121 25 30 39 101 110 115 122 247 249 263 270 271 327 336 338 356 362 414 434 473 497 510 514 533 560 563 573 621 624 628 639 650 666 669 703 740 743
b 122 25 28 39 63 101 110 111 122 124 247 263 270 271 336 338 356 362 414 434 473 497 510 514 533 573 621 624 628 636 639 650 666 687 703 706 728 740
b 123 25 28 63 101 111 122 124 247 263 270 338 362 414 430 434 463 473 510 514 533 621 636 639 650 666 687 703 706 728 733 737 740
b 124 25 30 110 115 215 247 249 270 327 338 434 551 560 563 669 740 743
b 125 39 132 164 169 287 320 336 356 389 405 414 429 470 482 497 500 514 515 533 571 573 594 624 626 648 650 662 673 685
b 126 13 39 108 132 164 168 169 226 277 287 320 330 356 389 405 414 429 455 470 482 497 500 514 515 533 571 624 626 648 650 662 673 685
b 127 13 39 108 132 168 169 226 277 287 320 330 356 389 414 429 455 482 495 497 500 514 516 533 562 624 626 637 648 650 673
b 128 39 108 132 168 169 200 226 287 320 330 356 389 414 455 482 495 497 500 514 516 533 542 562 624 626 637 648 650 673
b 129 39 108 132 168 169 188 200 287 320 330 356 389 414 482 495 497 500 514 516 533 542 562 624 626 637 647 648 650 673
b 130 39 78 129 164 256 320 336 356 405 470 497 505 514 515 533 571 573 594 624 650 662 685
b 131 39 78 129 227 256 336 356 405 470 491 497 505 514 533 571 573 594 624 650 685 696
b 132 26 91 95 147 164 174 187 211 320 329 410 412 424 429 494 515 655 662
b 133 26 43 66 86 132 169 174 195 249 287 304 306 311 319 327 351 355 371 373 389 410 424 453 466 482 489 490 494 500 531 549 560 563 567 610 626 629 648 669 743 748
b 134 26 43 66 86 132 169 174 182 249 287 304 306 311 319 327 351 355 373 389 453 466 482 489 490 494 500 529 531 532 549 560 563 610 626 629 648 665 669 743 748
b 135 26 43 66 132 169 174 182 228 287 304 306 311 319 351 355 373 389 395 466 482 489 490 494 500 506 529 531 532 549 560 563 610 626 633 648 665 669 698 699 750
b 136 43 52 88 127 132 159 169 172 182 199 204 228 246 286 287 304 306 311 319 351 355 357 389 395 406 426 482 500 506 529 532 549 558 561 610 626 633 648 665 698 699 750
b 137 52 88 127 152 159 172 182 199 204 228 246 286 306 311 351 355 357 395 404 406 426 443 504 506 529 532 558 561 576 610 633 665 698 699 750
b 138 52 85 88 127 152 159 172 182 199 204 228 246 278 286 311 349 357 395 404 406 426 443 504 506 529 532 558 561 576 633 652 665 698 699 750
b 139 52 85 88 106 127 152 159 172 199 204 228 246 278 286 311 349 357 395 404 406 426 443 504 506 558 561 576 608 633 652 698 699 750
b 140 52 85 88 106 127 152 159 172 199 204 228 246 259 278 286 311 340 349 357 395 404 406 426 443 504 506 548 558 561 576 608 633 652 698 699
b 141 4 40 52 85 88 106 127 144 152 159 172 199 203 204 246 259 278 286 340 349 357 399 402 404 406 422 426 438 443 504 548 558 561 576 608 652 730
b 142 4 40 85 88 106 127 144 152 203 259 278 340 349 399 402 404 422 438 443 504 508 548 576 608 630 652 730
b 143 85 88 127 218 266 278 349 402 508 630 652
b 144 33 85 88 127 218 225 266 278 349 652
b 145 43 52 88 123 127 132 159 169 172 199 204 228 246 286 287 304 306 311 319 351 355 357 389 406 426 482 500 549 558 561 577 610 611 626 648 698 699
b 146 43 52 88 123 127 132 159 169 172 199 204 228 233 246 286 287 304 306 319 351 355 357 389 406 426 482 500 549 558 561 577 610 611 626 648 698 699
b 147 34 43 52 88 123 125 127 132 159 169 172 199 204 216 233 246 286 287 304 319 357 389 406 426 479 482 500 549 558 561 577 589 611 626 648 694 712 727
b 148 26 66 174 228 240 311 373 395 466 489 490 494 506 531 560 563 633 669 698 699 750
b 149 26 66 86 91 131 174 211 405 410 412 424 461 466 470 490 494 629 655 748
b 150 26 66 86 91 131 174 211 257 410 412 424 461 466 490 494 519 543 629 655 748
b 151 86 91 131 174 211 254 257 301 379 410 412 424 461 466 494 519 543 629 655 748
b 152 84 91 131 178 211 243 254 257 301 379 412 424 461 466 494 519 543 544 629 655
b 153 84 131 170 178 192 243 254 257 301 379 424 461 466 494 519 543 544 629
b 154 84 102 131 170 178 192 243 255 257 301 379 461 466 494 519 543 544 629
b 155 84 92 102 131 170 178 192 243 255 291 301 379 461 466 519 543 544 629
b 156 1 9 26 36 66 76 117 133 157 174 220 290 292 296 311 314 323 326 343 373 374 380 393 440 466 488 489 490 494 531 538 560 563 566 594 599 638 646 669 670 677 681 692 708 747
b 157 1 9 26 36 66 76 133 157 165 174 290 292 296 311 314 326 343 373 374 380 432 440 466 488 489 490 494 531 538 560 563 566 594 599 646 669 670 677 681 689 692 708 724
b 158 26 36 66 76 133 138 157 165 174 290 292 296 311 314 326 343 373 374 380 432 436 440 458 466 489 490 494 531 538 560 563 566 594 595 599 646 669 670 674 680 681 689 692 708 724 738
b 159 26 36 66 76 133 138 157 165 174 290 292 296 311 314 326 343 373 374 380 432 436 440 458 466 489 490 494 521 531 538 560 563 566 594 595 599 646 670 674 680 681 689 692 708 724 738
b 160 26 36 66 76 104 133 138 157 165 174 290 292 296 311 314 326 343 373 374 380 432 436 440 458 466 489 490 494 521 531 538 560 566 594 595 646 670 674 680 681 689 692 708 724 738
b 161 10 26 36 66 76 104 133 138 157 165 174 292 311 314 343 374 432 436 440 458 466 490 494 537 538 566 594 595 646 670 674 680 681 689 692 708 724 738
b 162 10 26 36 66 76 104 133 138 157 165 174 229 264 292 311 314 343 374 432 436 440 458 466 490 494 537 538 566 595 646 670 674 680 681 689 692 708 724 738
b 163 10 26 66 76 104 138 157 165 174 229 230 264 302 311 314 374 432 436 440 458 466 490 494 537 566 595 646 670 674 680 689 692 724 738
b 164 10 11 26 66 76 104 138 157 165 174 229 230 264 302 311 314 374 432 436 440 458 466 490 494 537 566 590 595 646 670 674 680 689 692 738
b 165 10 11 26 47 66 76 82 104 138 157 174 229 230 264 302 311 314 374 436 440 458 466 490 494 537 566 581 590 595 646 670 674 680 692 738 757
b 166 11 26 47 66 76 82 104 138 157 174 224 230 258 302 311 314 374 436 458 466 475 487 490 494 581 590 595 646 674 680 738 757
b 167 10 11 47 82 229 230 264 302 310 440 537 545 556 566 581 590 612 670 692 757
b 168 10 36 133 138 143 229 264 292 318 343 372 436 458 537 538 595 674 680 681 708 738
b 169 10 36 133 138 143 229 264 292 318 343 358 372 436 458 537 538 595 680 681 708 738
b 170 1 9 76 117 157 193 195 220 249 314 323 327 371 374 440 488 566 567 583 638 670 677 692 743 747
b 171 1 9 76 157 249 314 323 327 374 440 488 498 566 583 604 670 677 692
b 172 1 9 76 157 314 327 374 440 488 498 566 574 604 645 670 677 692
b 173 1 9 76 99 157 314 374 440 452 488 566 574 604 645 670 677 692
b 174 1 9 76 99 157 314 352 374 440 452 488 566 574 604 617 645 670 671 692
b 175 59 76 99 157 314 352 359 374 377 452 574 604 617 645 671
b 176 59 99 100 157 352 359 377 452 632 671
b 177 59 76 99 314 352 359 374 377 390 452 574 604 617 645 671
b 178 65 130 171 179 248 324 401 423 492 742
b 179 65 68 130 171 248 250 401 403 413 423 492 622 742
b 180 65 68 96 156 171 176 198 250 401 403 413 492 546 622 686 736 742
b 181 68 96 156 171 176 198 250 403 413 492 546 619 686 736 742
b 182 18 237 284 343 421 431 526 653 721 751
b 183 18 41 133 284 323 343 421 431 526 538 653 747 751
b 184 36 41 117 133 220 284 292 323 343 421 431 538 638 653 681 708 747
b 185 36 117 133 220 292 323 343 393 421 538 638 653 681 708 747
b 186 120 133 138 143 217 318 325 343 358 372 385 458 538 738
b 187 12 32 175 210 250 274 363 382 403 540 575 667 714 742
b 188 16 20 37 60 105 208 281 307 335 387 501 511 525 527 683 695
b 189 47 76 82 157 183 201 224 258 314 374 475 487 554 581 649 757
b 190 5 35 46 50 56 58 121 212 213 214 245 251 317 322 333 353 420 454 471 485 503 578 606 642 716 753
b 191 5 50 58 121 212 213 245 251 317 322 333 353 407 454 471 485 503 606 716 753
b 192 2 30 48 51 101 115 122 238 239 280 294 341 354 388 473 510 565 639 666 691 722
b 193 39 78 129 194 206 227 256 336 356 483 491 497 505 514 533 571 591 594 624 650 656 685 696 702 711 745
b 194 39 78 129 194 227 256 336 356 491 497 505 514 533 571 573 594 624 650 685 696
b 195 45 77 142 158 190 235 293 348 376 383 398 439 444 451 462 555 607 631 657 682 741
1 186
2 156
3 31
4 46
5 187
6 89
7 17
8 97
9 195
10 155
11 14
12 13
13 189
14 188
15 22
16 190
17 35
18 193
19 26
20 192
21 123
22 107
23 24
24 25
25 107
26 27
27 144
28 29
29 30
30 34
31 32
32 73
33 34
33 59
33 90
34 35
35 181
35 36
36 37
36 46
37 38
38 39
39 40
40 41
41 42
42 43
43 44
43 45
46 47
47 48
48 49
48 58
49 50
50 51
50 56
51 52
52 53
53 54
54 188
54 55
56 57
57 187
59 60
60 61
60 78
61 62
62 63
63 64
64 65
65 66
66 67
66 75
67 68
68 69
69 70
70 71
71 72
72 73
72 74
75 76
76 77
78 79
78 85
79 80
80 81
81 82
82 83
83 84
84 195
85 86
86 87
86 88
88 89
90 91
90 98
91 113
91 92
92 93
93 94
94 95
95 96
96 97
98 99
99 100
100 101
101 102
101 104
102 103
103 191
104 105
105 106
107 185
107 108
107 156
107 170
108 109
109 110
109 133
109 149
110 111
110 132
111 112
112 113
112 125
113 114
113 120
114 115
115 116
116 117
117 118
118 119
119 192
120 121
121 122
121 124
122 123
125 126
125 130
126 127
127 128
128 129
130 131
131 194
133 134
134 135
135 136
135 148
136 137
136 145
137 138
138 139
139 140
140 141
141 142
142 143
143 144
145 146
146 147
149 150
150 151
151 152
152 153
153 154
154 155
156 157
157 158
158 159
159 160
160 161
161 162
162 163
162 168
163 164
164 165
165 166
165 167
166 189
168 169
169 186
170 171
171 172
172 173
173 174
174 175
175 176
175 177
178 179
179 180
180 181
182 183
183 184
184 185
190 191
193 194
